c transitions.cnf
c
p cnf 8 57
1 5 2 6 3 7 4 -8 0
1 5 2 6 3 7 -4 -8 0
1 5 2 6 3 -7 4 8 0
1 5 2 6 3 -7 4 -8 0
1 5 2 6 3 -7 -4 8 0
1 5 2 6 3 -7 -4 -8 0
1 5 2 6 -3 7 4 8 0
1 5 2 6 -3 7 4 -8 0
1 5 2 6 -3 7 -4 -8 0
1 5 2 6 -3 -7 4 8 0
1 5 2 6 -3 -7 4 -8 0
1 5 2 6 -3 -7 -4 8 0
1 5 2 6 -3 -7 -4 -8 0
1 5 2 -6 3 7 4 8 0
1 5 2 -6 3 7 4 -8 0
1 5 2 -6 3 7 -4 8 0
1 5 2 -6 3 7 -4 -8 0
1 5 2 -6 3 -7 4 8 0
1 5 2 -6 3 -7 4 -8 0
1 5 2 -6 3 -7 -4 8 0
1 5 2 -6 3 -7 -4 -8 0
1 5 2 -6 -3 7 4 8 0
1 5 2 -6 -3 7 4 -8 0
1 5 2 -6 -3 7 -4 8 0
1 5 2 -6 -3 7 -4 -8 0
1 5 2 -6 -3 -7 4 -8 0
1 5 2 -6 -3 -7 -4 8 0
1 5 2 -6 -3 -7 -4 -8 0
1 5 -2 6 3 7 4 8 0
1 5 -2 6 3 7 4 -8 0
1 5 -2 6 3 7 -4 8 0
1 5 -2 6 3 7 -4 -8 0
1 5 -2 6 3 -7 4 8 0
1 5 -2 6 3 -7 4 -8 0
1 5 -2 6 3 -7 -4 8 0
1 5 -2 6 3 -7 -4 -8 0
1 5 -2 6 -3 7 4 8 0
1 5 -2 6 -3 7 4 -8 0
1 5 -2 6 -3 7 -4 8 0
1 5 -2 6 -3 7 -4 -8 0
1 5 -2 6 -3 -7 4 8 0
1 5 -2 6 -3 -7 4 -8 0
1 5 -2 6 -3 -7 -4 8 0
1 5 -2 6 -3 -7 -4 -8 0
1 5 -2 -6 3 7 4 8 0
1 5 -2 -6 3 7 -4 8 0
1 5 -2 -6 3 7 -4 -8 0
1 5 -2 -6 3 -7 4 8 0
1 5 -2 -6 3 -7 4 -8 0
1 5 -2 -6 3 -7 -4 8 0
1 5 -2 -6 -3 7 4 -8 0
1 5 -2 -6 -3 7 -4 8 0
1 5 -2 -6 -3 7 -4 -8 0
1 5 -2 -6 -3 -7 4 8 0
1 5 -2 -6 -3 -7 4 -8 0
1 5 -2 -6 -3 -7 -4 8 0
1 5 -2 -6 -3 -7 -4 -8 0
1 -5 2 6 3 7 4 8 0
1 -5 2 6 3 7 4 -8 0
1 -5 2 6 3 7 -4 8 0
1 -5 2 6 3 7 -4 -8 0
1 -5 2 6 3 -7 4 8 0
1 -5 2 6 3 -7 4 -8 0
1 -5 2 6 3 -7 -4 8 0
1 -5 2 6 3 -7 -4 -8 0
1 -5 2 6 -3 7 4 8 0
1 -5 2 6 -3 7 4 -8 0
1 -5 2 6 -3 7 -4 8 0
1 -5 2 6 -3 7 -4 -8 0
1 -5 2 6 -3 -7 4 8 0
1 -5 2 6 -3 -7 4 -8 0
1 -5 2 6 -3 -7 -4 8 0
1 -5 2 6 -3 -7 -4 -8 0
1 -5 2 -6 3 7 4 8 0
1 -5 2 -6 3 7 4 -8 0
1 -5 2 -6 3 7 -4 8 0
1 -5 2 -6 3 7 -4 -8 0
1 -5 2 -6 3 -7 4 8 0
1 -5 2 -6 3 -7 4 -8 0
1 -5 2 -6 3 -7 -4 8 0
1 -5 2 -6 3 -7 -4 -8 0
1 -5 2 -6 -3 7 4 8 0
1 -5 2 -6 -3 7 4 -8 0
1 -5 2 -6 -3 7 -4 8 0
1 -5 2 -6 -3 7 -4 -8 0
1 -5 2 -6 -3 -7 4 8 0
1 -5 2 -6 -3 -7 4 -8 0
1 -5 2 -6 -3 -7 -4 8 0
1 -5 2 -6 -3 -7 -4 -8 0
1 -5 -2 6 3 7 4 8 0
1 -5 -2 6 3 7 4 -8 0
1 -5 -2 6 3 7 -4 8 0
1 -5 -2 6 3 7 -4 -8 0
1 -5 -2 6 3 -7 4 8 0
1 -5 -2 6 3 -7 4 -8 0
1 -5 -2 6 3 -7 -4 8 0
1 -5 -2 6 3 -7 -4 -8 0
1 -5 -2 6 -3 7 4 8 0
1 -5 -2 6 -3 7 4 -8 0
1 -5 -2 6 -3 7 -4 8 0
1 -5 -2 6 -3 7 -4 -8 0
1 -5 -2 6 -3 -7 4 8 0
1 -5 -2 6 -3 -7 4 -8 0
1 -5 -2 6 -3 -7 -4 8 0
1 -5 -2 6 -3 -7 -4 -8 0
1 -5 -2 -6 3 7 4 8 0
1 -5 -2 -6 3 7 4 -8 0
1 -5 -2 -6 3 7 -4 8 0
1 -5 -2 -6 3 7 -4 -8 0
1 -5 -2 -6 3 -7 4 8 0
1 -5 -2 -6 3 -7 4 -8 0
1 -5 -2 -6 3 -7 -4 8 0
1 -5 -2 -6 3 -7 -4 -8 0
1 -5 -2 -6 -3 7 4 8 0
1 -5 -2 -6 -3 7 4 -8 0
1 -5 -2 -6 -3 7 -4 8 0
1 -5 -2 -6 -3 7 -4 -8 0
1 -5 -2 -6 -3 -7 4 8 0
1 -5 -2 -6 -3 -7 4 -8 0
1 -5 -2 -6 -3 -7 -4 8 0
-1 5 2 6 3 7 4 8 0
-1 5 2 6 3 7 4 -8 0
-1 5 2 6 3 7 -4 8 0
-1 5 2 6 3 7 -4 -8 0
-1 5 2 6 3 -7 4 8 0
-1 5 2 6 3 -7 4 -8 0
-1 5 2 6 3 -7 -4 8 0
-1 5 2 6 3 -7 -4 -8 0
-1 5 2 6 -3 7 4 8 0
-1 5 2 6 -3 7 4 -8 0
-1 5 2 6 -3 7 -4 8 0
-1 5 2 6 -3 7 -4 -8 0
-1 5 2 6 -3 -7 4 -8 0
-1 5 2 6 -3 -7 -4 8 0
-1 5 2 6 -3 -7 -4 -8 0
-1 5 2 -6 3 7 4 8 0
-1 5 2 -6 3 7 4 -8 0
-1 5 2 -6 3 7 -4 8 0
-1 5 2 -6 3 7 -4 -8 0
-1 5 2 -6 3 -7 4 8 0
-1 5 2 -6 3 -7 4 -8 0
-1 5 2 -6 3 -7 -4 8 0
-1 5 2 -6 3 -7 -4 -8 0
-1 5 2 -6 -3 7 4 8 0
-1 5 2 -6 -3 7 4 -8 0
-1 5 2 -6 -3 7 -4 8 0
-1 5 2 -6 -3 7 -4 -8 0
-1 5 2 -6 -3 -7 4 8 0
-1 5 2 -6 -3 -7 4 -8 0
-1 5 2 -6 -3 -7 -4 8 0
-1 5 2 -6 -3 -7 -4 -8 0
-1 5 -2 6 3 7 4 -8 0
-1 5 -2 6 3 7 -4 -8 0
-1 5 -2 6 3 -7 4 8 0
-1 5 -2 6 3 -7 4 -8 0
-1 5 -2 6 3 -7 -4 8 0
-1 5 -2 6 3 -7 -4 -8 0
-1 5 -2 6 -3 7 4 -8 0
-1 5 -2 6 -3 7 -4 8 0
-1 5 -2 6 -3 7 -4 -8 0
-1 5 -2 6 -3 -7 4 8 0
-1 5 -2 6 -3 -7 4 -8 0
-1 5 -2 6 -3 -7 -4 8 0
-1 5 -2 6 -3 -7 -4 -8 0
-1 5 -2 -6 3 7 4 8 0
-1 5 -2 -6 3 7 4 -8 0
-1 5 -2 -6 3 7 -4 8 0
-1 5 -2 -6 3 7 -4 -8 0
-1 5 -2 -6 3 -7 4 8 0
-1 5 -2 -6 3 -7 4 -8 0
-1 5 -2 -6 3 -7 -4 8 0
-1 5 -2 -6 3 -7 -4 -8 0
-1 5 -2 -6 -3 7 4 8 0
-1 5 -2 -6 -3 7 4 -8 0
-1 5 -2 -6 -3 7 -4 8 0
-1 5 -2 -6 -3 7 -4 -8 0
-1 5 -2 -6 -3 -7 4 8 0
-1 5 -2 -6 -3 -7 4 -8 0
-1 5 -2 -6 -3 -7 -4 8 0
-1 5 -2 -6 -3 -7 -4 -8 0
-1 -5 2 6 3 7 4 8 0
-1 -5 2 6 3 7 4 -8 0
-1 -5 2 6 3 7 -4 -8 0
-1 -5 2 6 3 -7 4 -8 0
-1 -5 2 6 3 -7 -4 8 0
-1 -5 2 6 3 -7 -4 -8 0
-1 -5 2 6 -3 7 4 8 0
-1 -5 2 6 -3 7 4 -8 0
-1 -5 2 6 -3 7 -4 8 0
-1 -5 2 6 -3 -7 4 8 0
-1 -5 2 6 -3 -7 4 -8 0
-1 -5 2 6 -3 -7 -4 8 0
-1 -5 2 6 -3 -7 -4 -8 0
-1 -5 2 -6 3 7 4 8 0
-1 -5 2 -6 3 7 4 -8 0
-1 -5 2 -6 3 7 -4 8 0
-1 -5 2 -6 3 7 -4 -8 0
-1 -5 2 -6 3 -7 4 8 0
-1 -5 2 -6 3 -7 4 -8 0
-1 -5 2 -6 3 -7 -4 8 0
-1 -5 2 -6 3 -7 -4 -8 0
-1 -5 2 -6 -3 7 4 8 0
-1 -5 2 -6 -3 7 4 -8 0
-1 -5 2 -6 -3 7 -4 8 0
-1 -5 2 -6 -3 7 -4 -8 0
-1 -5 2 -6 -3 -7 4 8 0
-1 -5 2 -6 -3 -7 4 -8 0
-1 -5 2 -6 -3 -7 -4 8 0
-1 -5 2 -6 -3 -7 -4 -8 0
-1 -5 -2 6 3 7 4 8 0
-1 -5 -2 6 3 7 4 -8 0
-1 -5 -2 6 3 7 -4 8 0
-1 -5 -2 6 3 7 -4 -8 0
-1 -5 -2 6 3 -7 4 8 0
-1 -5 -2 6 3 -7 4 -8 0
-1 -5 -2 6 3 -7 -4 8 0
-1 -5 -2 6 3 -7 -4 -8 0
-1 -5 -2 6 -3 7 4 8 0
-1 -5 -2 6 -3 7 4 -8 0
-1 -5 -2 6 -3 7 -4 8 0
-1 -5 -2 6 -3 7 -4 -8 0
-1 -5 -2 6 -3 -7 4 8 0
-1 -5 -2 6 -3 -7 4 -8 0
-1 -5 -2 6 -3 -7 -4 8 0
-1 -5 -2 -6 3 7 4 8 0
-1 -5 -2 -6 3 7 4 -8 0
-1 -5 -2 -6 3 7 -4 8 0
-1 -5 -2 -6 3 7 -4 -8 0
-1 -5 -2 -6 3 -7 4 8 0
-1 -5 -2 -6 3 -7 4 -8 0
-1 -5 -2 -6 3 -7 -4 8 0
-1 -5 -2 -6 3 -7 -4 -8 0
-1 -5 -2 -6 -3 7 4 8 0
-1 -5 -2 -6 -3 7 4 -8 0
-1 -5 -2 -6 -3 7 -4 8 0
-1 -5 -2 -6 -3 7 -4 -8 0
-1 -5 -2 -6 -3 -7 4 8 0
-1 -5 -2 -6 -3 -7 4 -8 0
-1 -5 -2 -6 -3 -7 -4 8 0
-1 -5 -2 -6 -3 -7 -4 -8 0